&inputpp
   outdir = './calculations'
   prefix = 'si'
   seedname = 'si'
/
