!!! SYSTEM PARAMETERS !!!
    num_wann = 128
    gamma_only = true

!!! JOB CONTROL !!!
    postproc_setup = true
    exclude_bands = 129-192

!!! WANNIERISE PARAMETERS !!!
    use_bloch_phases = T
    
!!! PLOT PARAMETERS !!!
    write_u_matrices = true

begin unit_cell_cart
     10.862000     0.0000000     0.0000000
     0.0000000     10.862000     0.0000000
     0.0000000     0.0000000     10.862000
end unit_cell_cart

mp_grid = 1 1 1

begin kpoints
  0.00000000  0.00000000  0.00000000
end kpoints

begin atoms_cart
Si 0.0000000000 0.0000000000 0.0000000000 
Si 0.0000000000 2.7155000000 2.7155000000 
Si 2.7155000000 2.7155000000 0.0000000000 
Si 2.7155000000 0.0000000000 2.7155000000 
Si 4.0732500000 1.3577500000 4.0732500000 
Si 1.3577500000 1.3577500000 1.3577500000 
Si 1.3577500000 4.0732500000 4.0732500000 
Si 4.0732500000 4.0732500000 1.3577500000 
Si 0.0000000000 0.0000000000 5.4310000000 
Si 0.0000000000 2.7155000000 8.1465000000 
Si 2.7155000000 2.7155000000 5.4310000000 
Si 2.7155000000 0.0000000000 8.1465000000 
Si 4.0732500000 1.3577500000 9.5042500000 
Si 1.3577500000 1.3577500000 6.7887500000 
Si 1.3577500000 4.0732500000 9.5042500000 
Si 4.0732500000 4.0732500000 6.7887500000 
Si 0.0000000000 5.4310000000 0.0000000000 
Si 0.0000000000 8.1465000000 2.7155000000 
Si 2.7155000000 8.1465000000 0.0000000000 
Si 2.7155000000 5.4310000000 2.7155000000 
Si 4.0732500000 6.7887500000 4.0732500000 
Si 1.3577500000 6.7887500000 1.3577500000 
Si 1.3577500000 9.5042500000 4.0732500000 
Si 4.0732500000 9.5042500000 1.3577500000 
Si 0.0000000000 5.4310000000 5.4310000000 
Si 0.0000000000 8.1465000000 8.1465000000 
Si 2.7155000000 8.1465000000 5.4310000000 
Si 2.7155000000 5.4310000000 8.1465000000 
Si 4.0732500000 6.7887500000 9.5042500000 
Si 1.3577500000 6.7887500000 6.7887500000 
Si 1.3577500000 9.5042500000 9.5042500000 
Si 4.0732500000 9.5042500000 6.7887500000 
Si 5.4310000000 0.0000000000 0.0000000000 
Si 5.4310000000 2.7155000000 2.7155000000 
Si 8.1465000000 2.7155000000 0.0000000000 
Si 8.1465000000 0.0000000000 2.7155000000 
Si 9.5042500000 1.3577500000 4.0732500000 
Si 6.7887500000 1.3577500000 1.3577500000 
Si 6.7887500000 4.0732500000 4.0732500000 
Si 9.5042500000 4.0732500000 1.3577500000 
Si 5.4310000000 0.0000000000 5.4310000000 
Si 5.4310000000 2.7155000000 8.1465000000 
Si 8.1465000000 2.7155000000 5.4310000000 
Si 8.1465000000 0.0000000000 8.1465000000 
Si 9.5042500000 1.3577500000 9.5042500000 
Si 6.7887500000 1.3577500000 6.7887500000 
Si 6.7887500000 4.0732500000 9.5042500000 
Si 9.5042500000 4.0732500000 6.7887500000 
Si 5.4310000000 5.4310000000 0.0000000000 
Si 5.4310000000 8.1465000000 2.7155000000 
Si 8.1465000000 8.1465000000 0.0000000000 
Si 8.1465000000 5.4310000000 2.7155000000 
Si 9.5042500000 6.7887500000 4.0732500000 
Si 6.7887500000 6.7887500000 1.3577500000 
Si 6.7887500000 9.5042500000 4.0732500000 
Si 9.5042500000 9.5042500000 1.3577500000 
Si 5.4310000000 5.4310000000 5.4310000000 
Si 5.4310000000 8.1465000000 8.1465000000 
Si 8.1465000000 8.1465000000 5.4310000000 
Si 8.1465000000 5.4310000000 8.1465000000 
Si 9.5042500000 6.7887500000 9.5042500000 
Si 6.7887500000 6.7887500000 6.7887500000 
Si 6.7887500000 9.5042500000 9.5042500000 
Si 9.5042500000 9.5042500000 6.7887500000
end atoms_cart