 &control
    calculation = 'scf'
    prefix = 'si'
    pseudo_dir='./'
    outdir = './calculations'
    verbosity='high'
 /
 &system
    ibrav =  0
    a = 5.431
    nat = 64
    ntyp = 1
    ecutwfc = 20
    occupations = 'smearing'
    smearing = 'gaussian'
    degauss = 0.001
    input_dft = 'rsh'
    exx_fraction = 0.25
    rsh_beta = -0.1611
    screening_parameter = 0.245
    nbnd = 192
    nspin = 2
    tot_magnetization = 0
    wannier_constraint = .true.
    lambda_wann_constr = 0.0
 /

 &electrons
   mixing_beta = 0.7
   conv_thr = 1.0d-7
   mixing_mode = 'plain'
   mixing_ndim = 8
   diagonalization = 'david'
   startingwfc = 'file'
   startingpot = 'file'
 /

CELL_PARAMETERS alat
 2.000000       0.000000         0.000000
 0.000000       2.000000         0.000000
 0.000000       0.000000         2.000000

ATOMIC_SPECIES
 Si 28.085 Si.upf

K_POINTS gamma

ATOMIC_POSITIONS angstrom
Si 0.0000000000 0.0000000000 0.0000000000 
Si 0.0000000000 2.7155000000 2.7155000000 
Si 2.7155000000 2.7155000000 0.0000000000 
Si 2.7155000000 0.0000000000 2.7155000000 
Si 4.0732500000 1.3577500000 4.0732500000 
Si 1.3577500000 1.3577500000 1.3577500000 
Si 1.3577500000 4.0732500000 4.0732500000 
Si 4.0732500000 4.0732500000 1.3577500000 
Si 0.0000000000 0.0000000000 5.4310000000 
Si 0.0000000000 2.7155000000 8.1465000000 
Si 2.7155000000 2.7155000000 5.4310000000 
Si 2.7155000000 0.0000000000 8.1465000000 
Si 4.0732500000 1.3577500000 9.5042500000 
Si 1.3577500000 1.3577500000 6.7887500000 
Si 1.3577500000 4.0732500000 9.5042500000 
Si 4.0732500000 4.0732500000 6.7887500000 
Si 0.0000000000 5.4310000000 0.0000000000 
Si 0.0000000000 8.1465000000 2.7155000000 
Si 2.7155000000 8.1465000000 0.0000000000 
Si 2.7155000000 5.4310000000 2.7155000000 
Si 4.0732500000 6.7887500000 4.0732500000 
Si 1.3577500000 6.7887500000 1.3577500000 
Si 1.3577500000 9.5042500000 4.0732500000 
Si 4.0732500000 9.5042500000 1.3577500000 
Si 0.0000000000 5.4310000000 5.4310000000 
Si 0.0000000000 8.1465000000 8.1465000000 
Si 2.7155000000 8.1465000000 5.4310000000 
Si 2.7155000000 5.4310000000 8.1465000000 
Si 4.0732500000 6.7887500000 9.5042500000 
Si 1.3577500000 6.7887500000 6.7887500000 
Si 1.3577500000 9.5042500000 9.5042500000 
Si 4.0732500000 9.5042500000 6.7887500000 
Si 5.4310000000 0.0000000000 0.0000000000 
Si 5.4310000000 2.7155000000 2.7155000000 
Si 8.1465000000 2.7155000000 0.0000000000 
Si 8.1465000000 0.0000000000 2.7155000000 
Si 9.5042500000 1.3577500000 4.0732500000 
Si 6.7887500000 1.3577500000 1.3577500000 
Si 6.7887500000 4.0732500000 4.0732500000 
Si 9.5042500000 4.0732500000 1.3577500000 
Si 5.4310000000 0.0000000000 5.4310000000 
Si 5.4310000000 2.7155000000 8.1465000000 
Si 8.1465000000 2.7155000000 5.4310000000 
Si 8.1465000000 0.0000000000 8.1465000000 
Si 9.5042500000 1.3577500000 9.5042500000 
Si 6.7887500000 1.3577500000 6.7887500000 
Si 6.7887500000 4.0732500000 9.5042500000 
Si 9.5042500000 4.0732500000 6.7887500000 
Si 5.4310000000 5.4310000000 0.0000000000 
Si 5.4310000000 8.1465000000 2.7155000000 
Si 8.1465000000 8.1465000000 0.0000000000 
Si 8.1465000000 5.4310000000 2.7155000000 
Si 9.5042500000 6.7887500000 4.0732500000 
Si 6.7887500000 6.7887500000 1.3577500000 
Si 6.7887500000 9.5042500000 4.0732500000 
Si 9.5042500000 9.5042500000 1.3577500000 
Si 5.4310000000 5.4310000000 5.4310000000 
Si 5.4310000000 8.1465000000 8.1465000000 
Si 8.1465000000 8.1465000000 5.4310000000 
Si 8.1465000000 5.4310000000 8.1465000000 
Si 9.5042500000 6.7887500000 9.5042500000 
Si 6.7887500000 6.7887500000 6.7887500000 
Si 6.7887500000 9.5042500000 9.5042500000 
Si 9.5042500000 9.5042500000 6.7887500000